00000000000000000000000000000000000000000000000000,00000000000000000000000000000000000000000000000000,00000000000000000000000000000000000000000000000000,00000000000000000000000000000000000000000000000000,01010000000000101000010001000110010110000001000010,00000000000000000000000000000000000000000000000000,00001100011111000101001010101001101001100000100100,00000000000000000000000000000000000000000000000000,10100011100000010010100100010000000000011110011001,00000000000000000000000000000000000000000000000000,[],[],[],[],[0, 5, 0, 3, 0, 0, 0, 0, 0, 0, 0, 0, 0, 0, 5, 0, 5, 0, 0, 0, 0, 8, 0, 0, 0, 5, 0, 0, 0, 8, 5, 0, 0, 8, 0, 3, 3, 0, 0, 0, 0, 0, 0, 5, 0, 0, 0, 0, 3, 0],[],[0, 0, 0, 0, 9, 1, 0, 0, 0, 1, 4, 1, 4, 6, 0, 0, 0, 1, 0, 9, 0, 0, 6, 0, 4, 0, 6, 0, 4, 0, 0, 4, 9, 0, 4, 0, 0, 9, 6, 0, 0, 0, 0, 0, 6, 0, 0, 4, 0, 0],[],[10, 0, 2, 0, 0, 0, 2, 10, 2, 0, 0, 0, 0, 0, 0, 2, 0, 0, 10, 0, 2, 0, 0, 7, 0, 0, 0, 7, 0, 0, 0, 0, 0, 0, 0, 0, 0, 0, 0, 7, 7, 7, 2, 0, 0, 10, 7, 0, 0, 2],[][9, 5, 11, 17],[8, 15, 6, 2, 20, 49, 42],[3, 36, 35, 48],[31, 12, 47, 24, 10, 34, 28],[14, 16, 30, 25, 1, 43],[38, 13, 26, 22, 44],[41, 27, 46, 40, 39, 23],[33, 29, 21],[37, 4, 19, 32],[0, 18, 45, 7]
00000000000100100100000110001010110000010000000000,00000000000000000000000000000000000000000000000000,00000000000000000000000000000000000000000000000000,00000000000000000000000000000000000000000000000000,01010000000000001000010001000100000110000001000010,00000000000000000000000000000000000000000000000000,00001100011011000000001000100001001001100000100100,00000000000000000000000000000000000000000000000000,00000000100000010010000000010000000000001110011001,10100011000000000001100000000000000000000000000000,[0, 0, 0, 0, 0, 0, 0, 0, 0, 0, 0, 7, 0, 0, 8, 0, 0, 7, 0, 0, 0, 0, 0, 7, 8, 0, 0, 0, 8, 0, 7, 0, 8, 7, 0, 0, 0, 0, 0, 7, 0, 0, 0, 0, 0, 0, 0, 0, 0, 0],[],[],[],[0, 3, 0, 4, 0, 0, 0, 0, 0, 0, 0, 0, 0, 0, 0, 0, 3, 0, 0, 0, 0, 4, 0, 0, 0, 4, 0, 0, 0, 4, 0, 0, 0, 0, 0, 3, 3, 0, 0, 0, 0, 0, 0, 4, 0, 0, 0, 0, 3, 0],[],[0, 0, 0, 0, 6, 2, 0, 0, 0, 6, 2, 0, 6, 2, 0, 0, 0, 0, 0, 0, 0, 0, 6, 0, 0, 0, 2, 0, 0, 0, 0, 2, 0, 0, 2, 0, 0, 2, 6, 0, 0, 0, 0, 0, 2, 0, 0, 6, 0, 0],[],[0, 0, 0, 0, 0, 0, 0, 0, 9, 0, 0, 0, 0, 0, 0, 9, 0, 0, 1, 0, 0, 0, 0, 0, 0, 0, 0, 9, 0, 0, 0, 0, 0, 0, 0, 0, 0, 0, 0, 0, 9, 9, 1, 0, 0, 1, 1, 0, 0, 1],[10, 0, 10, 0, 0, 0, 10, 5, 0, 0, 0, 0, 0, 0, 0, 0, 0, 0, 0, 5, 5, 0, 0, 0, 0, 0, 0, 0, 0, 0, 0, 0, 0, 0, 0, 0, 0, 0, 0, 0, 0, 0, 0, 0, 0, 0, 0, 0, 0, 0][18, 46, 45, 49, 42],[13, 5, 37, 26, 10, 44, 34, 31],[35, 48, 16, 1, 36],[3, 29, 21, 25, 43],[19, 7, 20],[9, 22, 12, 38, 4, 47],[23, 39, 17, 11, 30, 33],[32, 24, 28, 14],[41, 40, 8, 27, 15],[2, 6, 0]
00000000000000000000000000000000000000000000000000,00000000000000000000000000000000000000000000000000,01000000000100101101010101001010110100000001000010,00000000000000000000000000000000000000000000000000,00000000000000000000000000000000000000000000000000,00000000000000000000000000000000000000000000000000,00011100011011000000001000100101001011100000100100,00000000000000000000000000000000000000000000000000,00000000100000010010000000010000000000001110011001,10100011000000000000100010000000000000010000000000,[],[],[0, 6, 0, 0, 0, 0, 0, 0, 0, 0, 0, 6, 0, 0, 5, 0, 5, 5, 0, 5, 0, 6, 0, 6, 0, 5, 0, 0, 9, 0, 6, 0, 9, 9, 0, 9, 0, 0, 0, 0, 0, 0, 0, 6, 0, 0, 0, 0, 9, 0],[],[],[],[0, 0, 0, 4, 10, 2, 0, 0, 0, 2, 2, 0, 10, 4, 0, 0, 0, 0, 0, 0, 0, 0, 10, 0, 0, 0, 4, 0, 0, 2, 0, 2, 0, 0, 10, 0, 2, 2, 10, 0, 0, 0, 0, 0, 10, 0, 0, 4, 0, 0],[],[0, 0, 0, 0, 0, 0, 0, 0, 8, 0, 0, 0, 0, 0, 0, 1, 0, 0, 1, 0, 0, 0, 0, 0, 0, 0, 0, 1, 0, 0, 0, 0, 0, 0, 0, 0, 0, 0, 0, 0, 8, 1, 1, 0, 0, 8, 8, 0, 0, 1],[7, 0, 3, 0, 0, 0, 3, 7, 0, 0, 0, 0, 0, 0, 0, 0, 0, 0, 0, 0, 7, 0, 0, 0, 7, 0, 0, 0, 0, 0, 0, 0, 0, 0, 0, 0, 0, 0, 0, 3, 0, 0, 0, 0, 0, 0, 0, 0, 0, 0][15, 41, 42, 49, 18, 27],[36, 5, 37, 29, 9, 31, 10],[2, 6, 39],[13, 47, 3, 26],[14, 19, 16, 17, 25],[30, 23, 1, 11, 43, 21],[20, 0, 24, 7],[46, 40, 8, 45],[33, 32, 35, 48, 28],[4, 22, 34, 44, 12, 38]
00000000000100100100000100000010110000010000000000,00000000000000000000000000000000000000000000000000,00000000000000000000000000000000000000000000000000,00100011000000000001100010001000000000000000000000,01010000000000001000010001000100000110000001000010,00000000000000000000000000000000000000000000000000,00001100011011000000001000100001001001100000100100,00000000000000000000000000000000000000000000000000,10000000100000010010000000010000000000001110011001,00000000000000000000000000000000000000000000000000,[0, 0, 0, 0, 0, 0, 0, 0, 0, 0, 0, 1, 0, 0, 3, 0, 0, 1, 0, 0, 0, 0, 0, 1, 0, 0, 0, 0, 0, 0, 3, 0, 3, 3, 0, 0, 0, 0, 0, 1, 0, 0, 0, 0, 0, 0, 0, 0, 0, 0],[],[],[0, 0, 5, 0, 0, 0, 5, 10, 0, 0, 0, 0, 0, 0, 0, 0, 0, 0, 0, 5, 10, 0, 0, 0, 10, 0, 0, 0, 10, 0, 0, 0, 0, 0, 0, 0, 0, 0, 0, 0, 0, 0, 0, 0, 0, 0, 0, 0, 0, 0],[0, 8, 0, 8, 0, 0, 0, 0, 0, 0, 0, 0, 0, 0, 0, 0, 8, 0, 0, 0, 0, 9, 0, 0, 0, 9, 0, 0, 0, 9, 0, 0, 0, 0, 0, 9, 8, 0, 0, 0, 0, 0, 0, 8, 0, 0, 0, 0, 8, 0],[],[0, 0, 0, 0, 2, 6, 0, 0, 0, 6, 2, 0, 6, 6, 0, 0, 0, 0, 0, 0, 0, 0, 6, 0, 0, 0, 2, 0, 0, 0, 0, 6, 0, 0, 2, 0, 0, 2, 2, 0, 0, 0, 0, 0, 6, 0, 0, 2, 0, 0],[],[7, 0, 0, 0, 0, 0, 0, 0, 7, 0, 0, 0, 0, 0, 0, 4, 0, 0, 7, 0, 0, 0, 0, 0, 0, 0, 0, 4, 0, 0, 0, 0, 0, 0, 0, 0, 0, 0, 0, 0, 4, 4, 7, 0, 0, 7, 4, 0, 0, 4],[][17, 11, 23, 39],[37, 26, 34, 38, 4, 10, 47],[14, 32, 30, 33],[49, 15, 41, 27, 40, 46],[19, 6, 2],[22, 13, 9, 44, 12, 31, 5],[0, 45, 18, 42, 8],[16, 3, 36, 43, 1, 48],[25, 29, 21, 35],[28, 7, 24, 20]
00000000000100100100000100001010110000010000000000,00000000000000000000000000000000000000000000000000,00000000000000000000000000000000000000000000000000,00000000000000000000000000000000000000000000000000,01010000000000001000010001000100000110000001000010,00000000000000000000000000000000000000000000000000,00001100011011000000001000100001001001100000100100,00100001000000000000000010000000000000000000000000,00000000100000010010000000010000000000001110011001,10000010000000000001100000000000000000000000000000,[0, 0, 0, 0, 0, 0, 0, 0, 0, 0, 0, 10, 0, 0, 10, 0, 0, 10, 0, 0, 0, 0, 0, 1, 0, 0, 0, 0, 10, 0, 1, 0, 10, 1, 0, 0, 0, 0, 0, 10, 0, 0, 0, 0, 0, 0, 0, 0, 0, 0],[],[],[],[0, 5, 0, 4, 0, 0, 0, 0, 0, 0, 0, 0, 0, 0, 0, 0, 5, 0, 0, 0, 0, 5, 0, 0, 0, 4, 0, 0, 0, 4, 0, 0, 0, 0, 0, 4, 4, 0, 0, 0, 0, 0, 0, 4, 0, 0, 0, 0, 5, 0],[],[0, 0, 0, 0, 6, 2, 0, 0, 0, 6, 2, 0, 2, 6, 0, 0, 0, 0, 0, 0, 0, 0, 6, 0, 0, 0, 6, 0, 0, 0, 0, 2, 0, 0, 6, 0, 0, 2, 6, 0, 0, 0, 0, 0, 2, 0, 0, 2, 0, 0],[0, 0, 7, 0, 0, 0, 0, 7, 0, 0, 0, 0, 0, 0, 0, 0, 0, 0, 0, 0, 0, 0, 0, 0, 7, 0, 0, 0, 0, 0, 0, 0, 0, 0, 0, 0, 0, 0, 0, 0, 0, 0, 0, 0, 0, 0, 0, 0, 0, 0],[0, 0, 0, 0, 0, 0, 0, 0, 9, 0, 0, 0, 0, 0, 0, 8, 0, 0, 8, 0, 0, 0, 0, 0, 0, 0, 0, 9, 0, 0, 0, 0, 0, 0, 0, 0, 0, 0, 0, 0, 9, 8, 8, 0, 0, 8, 9, 0, 0, 9],[3, 0, 0, 0, 0, 0, 3, 0, 0, 0, 0, 0, 0, 0, 0, 0, 0, 0, 0, 3, 3, 0, 0, 0, 0, 0, 0, 0, 0, 0, 0, 0, 0, 0, 0, 0, 0, 0, 0, 0, 0, 0, 0, 0, 0, 0, 0, 0, 0, 0][30, 33, 23],[31, 44, 37, 47, 5, 12, 10],[6, 0, 20, 19],[35, 43, 36, 29, 3, 25],[21, 16, 1, 48],[38, 22, 34, 4, 9, 26, 13],[7, 24, 2],[18, 45, 15, 42, 41],[27, 46, 8, 49, 40],[17, 28, 14, 11, 39, 32]
00000000000000000000000000000000000000000000000000,00000000000000000000000000000000000000000000000000,01000000000100101101010001001010010100000001000010,00000000000000000000000000000000000000000000000000,00000000000000000000000000000000000000000000000000,00000000000000000000000000000000000000000000000000,00011100011011000000001000100101001011100000100100,00100011000000000000100110000000100000010000000000,10000000100000010010000000010000000000001110011001,00000000000000000000000000000000000000000000000000,[],[],[0, 7, 0, 0, 0, 0, 0, 0, 0, 0, 0, 8, 0, 0, 10, 0, 10, 10, 0, 8, 0, 7, 0, 0, 0, 8, 0, 0, 8, 0, 8, 0, 0, 10, 0, 7, 0, 0, 0, 0, 0, 0, 0, 8, 0, 0, 0, 0, 10, 0],[],[],[],[0, 0, 0, 2, 4, 2, 0, 0, 0, 4, 3, 0, 2, 2, 0, 0, 0, 0, 0, 0, 0, 0, 2, 0, 0, 0, 3, 0, 0, 2, 0, 2, 0, 0, 2, 0, 4, 3, 3, 0, 0, 0, 0, 0, 3, 0, 0, 4, 0, 0],[0, 0, 5, 0, 0, 0, 9, 5, 0, 0, 0, 0, 0, 0, 0, 0, 0, 0, 0, 0, 5, 0, 0, 9, 9, 0, 0, 0, 0, 0, 0, 0, 9, 0, 0, 0, 0, 0, 0, 5, 0, 0, 0, 0, 0, 0, 0, 0, 0, 0],[6, 0, 0, 0, 0, 0, 0, 0, 1, 0, 0, 0, 0, 0, 0, 6, 0, 0, 6, 0, 0, 0, 0, 0, 0, 0, 0, 1, 0, 0, 0, 0, 0, 0, 0, 0, 0, 0, 0, 0, 1, 6, 1, 0, 0, 6, 6, 0, 0, 6],[][27, 40, 42, 8],[34, 29, 22, 13, 5, 3, 12, 31],[38, 10, 26, 37, 44],[47, 9, 36, 4],[39, 20, 7, 2],[45, 46, 15, 18, 49, 41, 0],[21, 1, 35],[43, 25, 19, 30, 28, 11],[6, 32, 23, 24],[17, 33, 14, 48, 16]
00000000000000000000000000000000000000000000000000,00000000000000000000000000000000000000000000000000,00000000000000000000000000000000000000000000000000,00100011000100000101100110001000110000010000000000,01010000000000101000010001000110000110000001000010,00000000000000000000000000000000000000000000000000,00001100011011000000001000100001001001100000100100,00000000000000000000000000000000000000000000000000,10000000100000010010000000010000000000001110011001,00000000000000000000000000000000000000000000000000,[],[],[],[0, 0, 7, 0, 0, 0, 9, 7, 0, 0, 0, 1, 0, 0, 0, 0, 0, 9, 0, 9, 9, 0, 0, 1, 7, 0, 0, 0, 9, 0, 0, 0, 7, 1, 0, 0, 0, 0, 0, 9, 0, 0, 0, 0, 0, 0, 0, 0, 0, 0],[0, 4, 0, 4, 0, 0, 0, 0, 0, 0, 0, 0, 0, 0, 3, 0, 4, 0, 0, 0, 0, 4, 0, 0, 0, 4, 0, 0, 0, 3, 3, 0, 0, 0, 0, 3, 4, 0, 0, 0, 0, 0, 0, 3, 0, 0, 0, 0, 4, 0],[],[0, 0, 0, 0, 6, 6, 0, 0, 0, 8, 6, 0, 6, 8, 0, 0, 0, 0, 0, 0, 0, 0, 10, 0, 0, 0, 10, 0, 0, 0, 0, 8, 0, 0, 6, 0, 0, 6, 6, 0, 0, 0, 0, 0, 8, 0, 0, 8, 0, 0],[],[2, 0, 0, 0, 0, 0, 0, 0, 2, 0, 0, 0, 0, 0, 0, 5, 0, 0, 2, 0, 0, 0, 0, 0, 0, 0, 0, 2, 0, 0, 0, 0, 0, 0, 0, 0, 0, 0, 0, 0, 2, 5, 5, 0, 0, 2, 2, 0, 0, 5],[][33, 11, 23],[27, 46, 0, 45, 8, 18, 40],[30, 14, 43, 35, 29],[3, 16, 1, 21, 36, 25, 48],[49, 41, 42, 15],[4, 34, 12, 5, 10, 37, 38],[7, 32, 24, 2],[47, 13, 9, 44, 31],[20, 28, 17, 19, 6, 39],[26, 22]
00000000000000000000000000000000000000000000000000,00000000000000000000000000000000000000000000000000,01000000000100101101010001001010010100000001000010,00000000000000000000000000000000000000000000000000,00000000000000000000000000000000000000000000000000,00000000000000000000000000000000000000000000000000,00011100011011000000001000100101001011100000100100,00100011000000000000100110000000100000010000000000,10000000100000010010000000010000000000001110011001,00000000000000000000000000000000000000000000000000,[],[],[0, 1, 0, 0, 0, 0, 0, 0, 0, 0, 0, 9, 0, 0, 1, 0, 9, 9, 0, 3, 0, 9, 0, 0, 0, 3, 0, 0, 1, 0, 1, 0, 0, 9, 0, 1, 0, 0, 0, 0, 0, 0, 0, 3, 0, 0, 0, 0, 1, 0],[],[],[],[0, 0, 0, 6, 7, 6, 0, 0, 0, 6, 4, 0, 7, 4, 0, 0, 0, 0, 0, 0, 0, 0, 6, 0, 0, 0, 4, 0, 0, 6, 0, 4, 0, 0, 4, 0, 6, 7, 7, 0, 0, 0, 0, 0, 7, 0, 0, 4, 0, 0],[0, 0, 5, 0, 0, 0, 5, 8, 0, 0, 0, 0, 0, 0, 0, 0, 0, 0, 0, 0, 8, 0, 0, 8, 5, 0, 0, 0, 0, 0, 0, 0, 5, 0, 0, 0, 0, 0, 0, 8, 0, 0, 0, 0, 0, 0, 0, 0, 0, 0],[2, 0, 0, 0, 0, 0, 0, 0, 2, 0, 0, 0, 0, 0, 0, 10, 0, 0, 2, 0, 0, 0, 0, 0, 0, 0, 0, 2, 0, 0, 0, 0, 0, 0, 0, 0, 0, 0, 0, 0, 10, 2, 2, 0, 0, 10, 2, 0, 0, 10],[][35, 48, 28, 1, 30, 14],[41, 42, 46, 0, 8, 27, 18],[25, 43, 19],[47, 13, 26, 34, 31, 10],[6, 24, 2, 32],[29, 36, 3, 5, 9, 22],[4, 12, 37, 44, 38],[20, 23, 7, 39],[21, 16, 17, 33, 11],[45, 40, 15, 49]
00000000000000000000000000000000000000000000000000,00000000000000000000000000000000000000000000000000,00000000000000000000000000000000000000000000000000,00100011000100000101100110001000110000010000000000,01010000010001101000010001000110000110000001000010,00000000000000000000000000000000000000000000000000,00000000000000000000000000000000000000000000000000,00000000000000000000000000000000000000000000000000,10001100101010010010001000110001001001101110111101,00000000000000000000000000000000000000000000000000,[],[],[],[0, 0, 9, 0, 0, 0, 10, 4, 0, 0, 0, 9, 0, 0, 0, 0, 0, 10, 0, 4, 9, 0, 0, 4, 4, 0, 0, 0, 10, 0, 0, 0, 9, 4, 0, 0, 0, 0, 0, 4, 0, 0, 0, 0, 0, 0, 0, 0, 0, 0],[0, 8, 0, 1, 0, 0, 0, 0, 0, 1, 0, 0, 0, 7, 1, 0, 7, 0, 0, 0, 0, 8, 0, 0, 0, 7, 0, 0, 0, 8, 1, 0, 0, 0, 0, 8, 7, 0, 0, 0, 0, 0, 0, 8, 0, 0, 0, 0, 7, 0],[],[],[],[6, 0, 0, 0, 3, 2, 0, 0, 5, 0, 2, 0, 3, 0, 0, 2, 0, 0, 2, 0, 0, 0, 3, 0, 0, 0, 6, 6, 0, 0, 0, 3, 0, 0, 2, 0, 0, 5, 6, 0, 2, 6, 6, 0, 5, 6, 3, 6, 0, 2],[][14, 9, 30, 3],[18, 40, 15, 34, 10, 49, 5],[12, 31, 22, 4, 46],[7, 39, 23, 24, 33, 19],[44, 37, 8],[47, 41, 26, 38, 27, 42, 0, 45],[13, 36, 16, 25, 48],[29, 1, 21, 43, 35],[2, 20, 11, 32],[6, 28, 17]
00000000000000000000000000000000000000000000000000,00000000000000000000000000000000000000000000000000,01000100010100100100010001001011011000000000000110,00100001000000000001000110000000100000010000000000,00010000000001001000000000100100000111000001000000,00000000000000000000000000000000000000000000000000,00000000000000000000000000000000000000000000000000,00000000000000000000000000000000000000000000000000,00000000000000000000000000000000000000000000000000,10001010101010010010101000010000000000101110111001,[],[],[0, 5, 0, 0, 0, 10, 0, 0, 0, 9, 0, 10, 0, 0, 5, 0, 0, 10, 0, 0, 0, 9, 0, 0, 0, 10, 0, 0, 5, 0, 5, 5, 0, 5, 10, 0, 0, 0, 0, 0, 0, 0, 0, 0, 0, 0, 0, 9, 10, 0],[0, 0, 1, 0, 0, 0, 0, 1, 0, 0, 0, 0, 0, 0, 0, 0, 0, 0, 0, 7, 0, 0, 0, 1, 1, 0, 0, 0, 0, 0, 0, 0, 7, 0, 0, 0, 0, 0, 0, 1, 0, 0, 0, 0, 0, 0, 0, 0, 0, 0],[0, 0, 0, 8, 0, 0, 0, 0, 0, 0, 0, 0, 0, 8, 0, 0, 3, 0, 0, 0, 0, 0, 0, 0, 0, 0, 3, 0, 0, 8, 0, 0, 0, 0, 0, 3, 3, 8, 0, 0, 0, 0, 0, 8, 0, 0, 0, 0, 0, 0],[],[],[],[],[2, 0, 0, 0, 6, 0, 2, 0, 6, 0, 6, 0, 2, 0, 0, 6, 0, 0, 2, 0, 2, 0, 4, 0, 0, 0, 0, 6, 0, 0, 0, 0, 0, 0, 0, 0, 0, 0, 2, 0, 4, 6, 4, 0, 4, 4, 4, 0, 0, 2][2, 23, 24, 39, 7],[38, 49, 20, 12, 6, 18, 0],[35, 16, 26, 36],[46, 45, 40, 44, 42, 22],[28, 1, 14, 30, 33, 31],[15, 8, 4, 10, 27, 41],[32, 19],[43, 3, 13, 37, 29],[47, 9, 21],[5, 25, 17, 11, 34, 48]
00000000000000000000000000000000000000000000000000,00000000000000000000000000000000000000000000000000,00000000000000000000000000000000000000000000000000,00100011000100000101100110001000100000010000000000,00000000000000000000000000000000000000000000000000,01000000000000101000010001000010010100000001000010,00011100011011000000001000100101001011100000100100,00000000000000000000000000000000000000000000000000,10000000100000010010000000010000000000001110011001,00000000000000000000000000000000000000000000000000,[],[],[],[0, 0, 8, 0, 0, 0, 1, 1, 0, 0, 0, 5, 0, 0, 0, 0, 0, 1, 0, 1, 5, 0, 0, 8, 1, 0, 0, 0, 8, 0, 0, 0, 5, 0, 0, 0, 0, 0, 0, 1, 0, 0, 0, 0, 0, 0, 0, 0, 0, 0],[],[0, 4, 0, 0, 0, 0, 0, 0, 0, 0, 0, 0, 0, 0, 7, 0, 4, 0, 0, 0, 0, 4, 0, 0, 0, 4, 0, 0, 0, 0, 4, 0, 0, 4, 0, 7, 0, 0, 0, 0, 0, 0, 0, 7, 0, 0, 0, 0, 4, 0],[0, 0, 0, 10, 2, 2, 0, 0, 0, 2, 2, 0, 3, 2, 0, 0, 0, 0, 0, 0, 0, 0, 3, 0, 0, 0, 2, 0, 0, 10, 0, 2, 0, 0, 2, 0, 2, 10, 10, 0, 0, 0, 0, 0, 2, 0, 0, 3, 0, 0],[],[6, 0, 0, 0, 0, 0, 0, 0, 9, 0, 0, 0, 0, 0, 0, 6, 0, 0, 6, 0, 0, 0, 0, 0, 0, 0, 0, 6, 0, 0, 0, 0, 0, 0, 0, 0, 0, 0, 0, 0, 9, 6, 6, 0, 0, 6, 6, 0, 0, 9],[][19, 6, 7, 17, 24, 39],[31, 10, 13, 26, 36, 9, 34, 4, 44, 5],[22, 47, 12],[16, 21, 1, 48, 33, 25, 30],[20, 32, 11],[45, 27, 18, 46, 15, 0, 42, 41],[35, 43, 14],[2, 28, 23],[49, 8, 40],[37, 38, 3, 29]
00000000000000000000000000000000000000000000000000,00000000000000000000000000000000000000000000000000,01000100010100100100010001001011011000000000000110,00100001000000000001000110000000100000010000000000,00010000000001001000000000100100000111000001000000,00000000000000000000000000000000000000000000000000,00000000000000000000000000000000000000000000000000,00000000000000000000000000000000000000000000000000,00000000000000000000000000000000000000000000000000,10001010101010010010101000010000000000101110111001,[],[],[0, 10, 0, 0, 0, 4, 0, 0, 0, 10, 0, 4, 0, 0, 10, 0, 0, 10, 0, 0, 0, 3, 0, 0, 0, 4, 0, 0, 3, 0, 4, 3, 0, 3, 4, 0, 0, 0, 0, 0, 0, 0, 0, 0, 0, 0, 0, 4, 10, 0],[0, 0, 7, 0, 0, 0, 0, 7, 0, 0, 0, 0, 0, 0, 0, 0, 0, 0, 0, 5, 0, 0, 0, 5, 7, 0, 0, 0, 0, 0, 0, 0, 5, 0, 0, 0, 0, 0, 0, 5, 0, 0, 0, 0, 0, 0, 0, 0, 0, 0],[0, 0, 0, 9, 0, 0, 0, 0, 0, 0, 0, 0, 0, 1, 0, 0, 1, 0, 0, 0, 0, 0, 0, 0, 0, 0, 9, 0, 0, 9, 0, 0, 0, 0, 0, 9, 1, 1, 0, 0, 0, 0, 0, 1, 0, 0, 0, 0, 0, 0],[],[],[],[],[8, 0, 0, 0, 6, 0, 2, 0, 6, 0, 6, 0, 2, 0, 0, 2, 0, 0, 2, 0, 6, 0, 6, 0, 0, 0, 0, 2, 0, 0, 0, 0, 0, 0, 0, 0, 0, 0, 8, 0, 2, 8, 2, 0, 8, 2, 6, 0, 0, 8][36, 13, 37, 43, 16],[12, 6, 15, 42, 18, 27, 45, 40],[31, 33, 21, 28],[25, 34, 5, 47, 30, 11],[32, 19, 39, 23],[20, 22, 8, 46, 4, 10],[7, 24, 2],[0, 44, 38, 41, 49],[29, 26, 35, 3],[17, 14, 9, 1, 48]
00000000000000000000000000000000000000000000000000,00000000000100101100010001001010010000000000000000,00000000000000000000000000000000000000000000000000,00000000000000000000000000000000000000000000000000,01010000000000000000000000000100000110000001000010,00000000000000000000000000000000000000000000000000,00001100011011000000001000100001001001100000100100,00000000000000000000000000000000000000000000000000,00000000100000010010000000010000000000001110011001,10100011000000000001100110000000100000010000000000,[],[0, 0, 0, 0, 0, 0, 0, 0, 0, 0, 0, 5, 0, 0, 10, 0, 10, 10, 0, 0, 0, 10, 0, 0, 0, 10, 0, 0, 5, 0, 5, 0, 0, 5, 0, 0, 0, 0, 0, 0, 0, 0, 0, 0, 0, 0, 0, 0, 0, 0],[],[],[0, 7, 0, 3, 0, 0, 0, 0, 0, 0, 0, 0, 0, 0, 0, 0, 0, 0, 0, 0, 0, 0, 0, 0, 0, 0, 0, 0, 0, 3, 0, 0, 0, 0, 0, 7, 7, 0, 0, 0, 0, 0, 0, 7, 0, 0, 0, 0, 3, 0],[],[0, 0, 0, 0, 6, 2, 0, 0, 0, 6, 2, 0, 2, 6, 0, 0, 0, 0, 0, 0, 0, 0, 6, 0, 0, 0, 2, 0, 0, 0, 0, 6, 0, 0, 6, 0, 0, 6, 2, 0, 0, 0, 0, 0, 6, 0, 0, 2, 0, 0],[],[0, 0, 0, 0, 0, 0, 0, 0, 8, 0, 0, 0, 0, 0, 0, 8, 0, 0, 4, 0, 0, 0, 0, 0, 0, 0, 0, 4, 0, 0, 0, 0, 0, 0, 0, 0, 0, 0, 0, 0, 4, 4, 4, 0, 0, 8, 8, 0, 0, 8],[1, 0, 9, 0, 0, 0, 9, 1, 0, 0, 0, 0, 0, 0, 0, 0, 0, 0, 0, 1, 1, 0, 0, 9, 1, 0, 0, 0, 0, 0, 0, 0, 1, 0, 0, 0, 0, 0, 0, 1, 0, 0, 0, 0, 0, 0, 0, 0, 0, 0][24, 7, 32, 39, 0, 19, 20],[26, 5, 47, 12, 38, 10],[29, 3, 48],[41, 27, 40, 18, 42],[28, 33, 11, 30],[9, 13, 44, 31, 22, 4, 37, 34],[36, 1, 35, 43],[46, 8, 49, 15, 45],[23, 2, 6],[17, 25, 16, 14, 21]
00000000000000000000000000000000000000000000000000,00000000000100101100010001001010010000000000000000,00000000000000000000000000000000000000000000000000,00000000000000000000000000000000000000000000000000,01010000000000000000000000000100000110000001000010,00000000000000000000000000000000000000000000000000,00001100111011010000001000100001001001101110110101,00000000000000000000000000000000000000000000000000,00000000000000000000000000000000000000000000000000,10100011000000000011100110010000100000010000001000,[],[0, 0, 0, 0, 0, 0, 0, 0, 0, 0, 0, 7, 0, 0, 1, 0, 1, 1, 0, 0, 0, 1, 0, 0, 0, 1, 0, 0, 7, 0, 1, 0, 0, 7, 0, 0, 0, 0, 0, 0, 0, 0, 0, 0, 0, 0, 0, 0, 0, 0],[],[],[0, 10, 0, 10, 0, 0, 0, 0, 0, 0, 0, 0, 0, 0, 0, 0, 0, 0, 0, 0, 0, 0, 0, 0, 0, 0, 0, 0, 0, 10, 0, 0, 0, 0, 0, 3, 3, 0, 0, 0, 0, 0, 0, 3, 0, 0, 0, 0, 10, 0],[],[0, 0, 0, 0, 9, 4, 0, 0, 4, 6, 6, 0, 6, 4, 0, 9, 0, 0, 0, 0, 0, 0, 9, 0, 0, 0, 9, 0, 0, 0, 0, 6, 0, 0, 9, 0, 0, 6, 9, 0, 6, 9, 4, 0, 4, 6, 0, 9, 0, 4],[],[],[5, 0, 8, 0, 0, 0, 5, 2, 0, 0, 0, 0, 0, 0, 0, 0, 0, 0, 8, 8, 2, 0, 0, 2, 8, 0, 0, 2, 0, 0, 0, 0, 2, 0, 0, 0, 0, 0, 0, 5, 0, 0, 0, 0, 0, 0, 2, 0, 0, 0][21, 16, 30, 17, 14, 25],[7, 27, 20, 46, 23, 32],[35, 43, 36],[5, 44, 13, 8, 49, 42],[0, 6, 39],[40, 10, 45, 12, 31, 9, 37],[33, 28, 11],[18, 24, 2, 19],[4, 41, 38, 15, 22, 47, 26, 34],[3, 29, 48, 1]
00000000000000000000000000000000000000000000000000,00000000000000000000000000000000000000000000000000,00000000000000000000000000000000000000000000000000,00000000000000000000000000000000000000000000000000,00000000000000000000000000000000000000000000000000,01000000000000101000010001001010010100000001000010,00011100011011000000001000100101001011100000100100,00100011000100000101100110000000100000010000000000,10000000100000010010000000010000000000001110011001,00000000000000000000000000000000000000000000000000,[],[],[],[],[],[0, 1, 0, 0, 0, 0, 0, 0, 0, 0, 0, 0, 0, 0, 1, 0, 5, 0, 0, 0, 0, 1, 0, 0, 0, 5, 0, 0, 1, 0, 5, 0, 0, 5, 0, 1, 0, 0, 0, 0, 0, 0, 0, 1, 0, 0, 0, 0, 1, 0],[0, 0, 0, 7, 2, 9, 0, 0, 0, 9, 2, 0, 9, 7, 0, 0, 0, 0, 0, 0, 0, 0, 2, 0, 0, 0, 9, 0, 0, 7, 0, 2, 0, 0, 7, 0, 2, 9, 7, 0, 0, 0, 0, 0, 2, 0, 0, 2, 0, 0],[0, 0, 6, 0, 0, 0, 4, 6, 0, 0, 0, 6, 0, 0, 0, 0, 0, 6, 0, 6, 4, 0, 0, 4, 6, 0, 0, 0, 0, 0, 0, 0, 4, 0, 0, 0, 0, 0, 0, 6, 0, 0, 0, 0, 0, 0, 0, 0, 0, 0],[3, 0, 0, 0, 0, 0, 0, 0, 3, 0, 0, 0, 0, 0, 0, 10, 0, 0, 8, 0, 0, 0, 0, 0, 0, 0, 0, 8, 0, 0, 0, 0, 0, 0, 0, 0, 0, 0, 0, 0, 10, 10, 8, 0, 0, 8, 3, 0, 0, 8],[][43, 21, 14, 1, 48, 35, 28],[22, 4, 31, 47, 36, 44, 10],[46, 8, 0],[6, 20, 23, 32],[33, 30, 16, 25],[39, 7, 11, 2, 24, 19, 17],[3, 29, 13, 34, 38],[18, 27, 49, 45, 42],[26, 9, 37, 5, 12],[40, 41, 15]
00100001000100000100000110000000110000010000000000,00000000000000000000000000000000000000000000000000,00000000000000000000000000000000000000000000000000,00000000000000000000000000000000000000000000000000,00000000000000000000000000000000000000000000000000,01000000000000101000010001001010000100000001000010,00011100011011000001001000100101001011100000100100,00000000000000000000000000000000000000000000000000,10000010100000010010100000010000000000001110011001,00000000000000000000000000000000000000000000000000,[0, 0, 8, 0, 0, 0, 0, 8, 0, 0, 0, 3, 0, 0, 0, 0, 0, 3, 0, 0, 0, 0, 0, 3, 8, 0, 0, 0, 0, 0, 0, 0, 10, 10, 0, 0, 0, 0, 0, 8, 0, 0, 0, 0, 0, 0, 0, 0, 0, 0],[],[],[],[],[0, 5, 0, 0, 0, 0, 0, 0, 0, 0, 0, 0, 0, 0, 5, 0, 9, 0, 0, 0, 0, 9, 0, 0, 0, 5, 0, 0, 5, 0, 5, 0, 0, 0, 0, 9, 0, 0, 0, 0, 0, 0, 0, 9, 0, 0, 0, 0, 9, 0],[0, 0, 0, 2, 1, 7, 0, 0, 0, 1, 2, 0, 7, 2, 0, 0, 0, 0, 0, 1, 0, 0, 2, 0, 0, 0, 2, 0, 0, 1, 0, 2, 0, 0, 7, 0, 1, 1, 2, 0, 0, 0, 0, 0, 1, 0, 0, 7, 0, 0],[],[4, 0, 0, 0, 0, 0, 4, 0, 6, 0, 0, 0, 0, 0, 0, 6, 0, 0, 6, 0, 4, 0, 0, 0, 0, 0, 0, 4, 0, 0, 0, 0, 0, 0, 0, 0, 0, 0, 0, 0, 4, 6, 6, 0, 0, 6, 6, 0, 0, 6],[][36, 37, 4, 19, 9, 44, 29],[26, 3, 13, 38, 31, 22, 10],[23, 17, 11],[6, 40, 27, 20, 0],[30, 28, 1, 14, 25],[45, 42, 49, 15, 41, 18, 46, 8],[47, 34, 12, 5],[24, 39, 7, 2],[43, 35, 48, 21, 16],[33, 32]
00000000000000000000000000000000000000000000000000,00000000000000000000000000000000000000000000000000,00000000000000000000000000000000000000000000000000,00000000000000000000000000000000000000000000000000,01010000000000101000010001000110000110000001000010,00000000000000000000000000000000000000000000000000,00001100011011000000001000100001001001100000100100,00100011000100000101100110001000110000010000000000,10000000100000010010000000010000000000001110011001,00000000000000000000000000000000000000000000000000,[],[],[],[],[0, 5, 0, 7, 0, 0, 0, 0, 0, 0, 0, 0, 0, 0, 7, 0, 1, 0, 0, 0, 0, 1, 0, 0, 0, 5, 0, 0, 0, 1, 5, 0, 0, 0, 0, 7, 1, 0, 0, 0, 0, 0, 0, 7, 0, 0, 0, 0, 5, 0],[],[0, 0, 0, 0, 3, 3, 0, 0, 0, 2, 2, 0, 3, 2, 0, 0, 0, 0, 0, 0, 0, 0, 2, 0, 0, 0, 3, 0, 0, 0, 0, 2, 0, 0, 3, 0, 0, 2, 3, 0, 0, 0, 0, 0, 2, 0, 0, 2, 0, 0],[0, 0, 8, 0, 0, 0, 10, 6, 0, 0, 0, 10, 0, 0, 0, 0, 0, 6, 0, 8, 8, 0, 0, 10, 8, 0, 0, 0, 6, 0, 0, 0, 6, 6, 0, 0, 0, 0, 0, 6, 0, 0, 0, 0, 0, 0, 0, 0, 0, 0],[4, 0, 0, 0, 0, 0, 0, 0, 4, 0, 0, 0, 0, 0, 0, 9, 0, 0, 4, 0, 0, 0, 0, 0, 0, 0, 0, 4, 0, 0, 0, 0, 0, 0, 0, 0, 0, 0, 0, 0, 9, 4, 9, 0, 0, 9, 9, 0, 0, 9],[][21, 16, 29, 36],[10, 13, 37, 44, 9, 47, 31, 22],[34, 5, 12, 26, 4, 38],[18, 27, 0, 41, 8],[25, 30, 48, 1],[7, 28, 17, 32, 33, 39],[3, 43, 14, 35],[20, 24, 2, 19],[40, 46, 45, 49, 15, 42],[23, 11, 6]
00000000000000000000000000000000000000000000000000,00000000000000000000000000000000000000000000000000,00000000000000000000000000000000000000000000000000,00000000000000000000000000000000000000000000000000,01010000000000000000000000000100000110000001000010,00000000000100101100010111001010110000010000000000,00001100011011000001001000100001001001100000100100,00000000000000000000000000000000000000000000000000,10100011100000010010100000010000000000001110011001,00000000000000000000000000000000000000000000000000,[],[],[],[],[0, 3, 0, 3, 0, 0, 0, 0, 0, 0, 0, 0, 0, 0, 0, 0, 0, 0, 0, 0, 0, 0, 0, 0, 0, 0, 0, 0, 0, 5, 0, 0, 0, 0, 0, 5, 3, 0, 0, 0, 0, 0, 0, 5, 0, 0, 0, 0, 3, 0],[0, 0, 0, 0, 0, 0, 0, 0, 0, 0, 0, 7, 0, 0, 8, 0, 9, 8, 0, 0, 0, 7, 0, 8, 7, 9, 0, 0, 8, 0, 9, 0, 9, 9, 0, 0, 0, 0, 0, 7, 0, 0, 0, 0, 0, 0, 0, 0, 0, 0],[0, 0, 0, 0, 4, 1, 0, 0, 0, 4, 1, 0, 4, 10, 0, 0, 0, 0, 0, 10, 0, 0, 4, 0, 0, 0, 10, 0, 0, 0, 0, 4, 0, 0, 4, 0, 0, 1, 1, 0, 0, 0, 0, 0, 10, 0, 0, 10, 0, 0],[],[6, 0, 6, 0, 0, 0, 6, 2, 2, 0, 0, 0, 0, 0, 0, 2, 0, 0, 2, 0, 2, 0, 0, 0, 0, 0, 0, 6, 0, 0, 0, 0, 0, 0, 0, 0, 0, 0, 0, 0, 6, 2, 2, 0, 0, 6, 2, 0, 0, 2],[][10, 38, 37, 5],[41, 15, 20, 46, 49, 8, 42, 7, 18],[36, 48, 3, 1],[34, 4, 22, 12, 31, 9],[35, 29, 43],[27, 0, 6, 2, 40, 45],[21, 11, 39, 24],[14, 28, 17, 23],[16, 25, 32, 33, 30],[47, 19, 13, 26, 44]
00000000000000000000000000000000000000000000000000,01000000000100101100010101001010110100000001000010,00000000000000000000000000000000000000000000000000,00000000000000000000000000000000000000000000000000,00000000000000000000000000000000000000000000000000,00000000000000000000000000000000000000000000000000,00011100011011000001001010100101001011100000100100,00000000000000000000000000000000000000000000000000,10100011100000010010100000010000000000011110011001,00000000000000000000000000000000000000000000000000,[],[0, 1, 0, 0, 0, 0, 0, 0, 0, 0, 0, 8, 0, 0, 1, 0, 1, 8, 0, 0, 0, 3, 0, 8, 0, 3, 0, 0, 8, 0, 1, 0, 8, 1, 0, 3, 0, 0, 0, 0, 0, 0, 0, 1, 0, 0, 0, 0, 3, 0],[],[],[],[],[0, 0, 0, 7, 5, 6, 0, 0, 0, 5, 7, 0, 6, 4, 0, 0, 0, 0, 0, 7, 0, 0, 6, 0, 5, 0, 4, 0, 0, 6, 0, 5, 0, 0, 6, 0, 4, 6, 4, 0, 0, 0, 0, 0, 4, 0, 0, 6, 0, 0],[],[2, 0, 9, 0, 0, 0, 2, 9, 10, 0, 0, 0, 0, 0, 0, 9, 0, 0, 2, 0, 9, 0, 0, 0, 0, 0, 0, 2, 0, 0, 0, 0, 0, 0, 0, 0, 0, 0, 0, 10, 2, 2, 10, 0, 0, 2, 10, 0, 0, 9],[][30, 14, 43, 16, 1, 33],[40, 18, 6, 0, 27, 45, 41],[48, 35, 21, 25],[38, 13, 26, 36, 44],[24, 31, 9, 4],[37, 29, 47, 34, 22, 5, 12],[3, 10, 19],[32, 23, 17, 28, 11],[2, 7, 49, 15, 20],[39, 8, 46, 42]
00000000000100100100000100000010110000010000000000,00000000000000000000000000000000000000000000000000,00000000000000000000000000000000000000000000000000,00100011000000000001100010001000000000000000000000,01010000000000001000010001000100000110000001000010,00000000000000000000000000000000000000000000000000,00001100011011000000001000100001001001100000100100,00000000000000000000000000000000000000000000000000,10000000100000010010000000010000000000001110011001,00000000000000000000000000000000000000000000000000,[0, 0, 0, 0, 0, 0, 0, 0, 0, 0, 0, 9, 0, 0, 9, 0, 0, 5, 0, 0, 0, 0, 0, 5, 0, 0, 0, 0, 0, 0, 9, 0, 5, 9, 0, 0, 0, 0, 0, 9, 0, 0, 0, 0, 0, 0, 0, 0, 0, 0],[],[],[0, 0, 8, 0, 0, 0, 8, 8, 0, 0, 0, 0, 0, 0, 0, 0, 0, 0, 0, 10, 10, 0, 0, 0, 10, 0, 0, 0, 8, 0, 0, 0, 0, 0, 0, 0, 0, 0, 0, 0, 0, 0, 0, 0, 0, 0, 0, 0, 0, 0],[0, 7, 0, 7, 0, 0, 0, 0, 0, 0, 0, 0, 0, 0, 0, 0, 4, 0, 0, 0, 0, 4, 0, 0, 0, 4, 0, 0, 0, 7, 0, 0, 0, 0, 0, 4, 7, 0, 0, 0, 0, 0, 0, 4, 0, 0, 0, 0, 4, 0],[],[0, 0, 0, 0, 1, 1, 0, 0, 0, 1, 2, 0, 2, 2, 0, 0, 0, 0, 0, 0, 0, 0, 2, 0, 0, 0, 1, 0, 0, 0, 0, 2, 0, 0, 2, 0, 0, 2, 1, 0, 0, 0, 0, 0, 2, 0, 0, 2, 0, 0],[],[6, 0, 0, 0, 0, 0, 0, 0, 3, 0, 0, 0, 0, 0, 0, 3, 0, 0, 3, 0, 0, 0, 0, 0, 0, 0, 0, 3, 0, 0, 0, 0, 0, 0, 0, 0, 0, 0, 0, 0, 6, 6, 6, 0, 0, 6, 6, 0, 0, 6],[][5, 26, 9, 38, 4],[47, 13, 22, 34, 12, 37, 31, 44, 10],[27, 18, 8, 15],[43, 25, 21, 48, 35, 16],[32, 23, 17],[45, 0, 46, 40, 49, 42, 41],[1, 3, 29, 36],[6, 7, 28, 2],[39, 14, 30, 11, 33],[24, 20, 19]
